benchmarks_CP/INST_36x36/30/inst36x36_30_71.dzn
S=6;
start=[|
5,	-1,	-1,	20,	-1,	-1,	-1,	1,	-1,	-1,	11,	16,	-1,	2,	-1,	7,	-1,	-1,	28,	8,	32,	-1,	-1,	-1,	-1,	-1,	-1,	-1,	24,	21,	-1,	-1,	-1,	-1,	-1,	19|
-1,	-1,	4,	-1,	-1,	-1,	-1,	31,	-1,	-1,	27,	-1,	-1,	-1,	25,	19,	-1,	-1,	23,	-1,	-1,	33,	-1,	-1,	-1,	29,	9,	1,	-1,	-1,	-1,	-1,	-1,	-1,	-1,	-1|
-1,	-1,	-1,	-1,	-1,	-1,	-1,	-1,	-1,	-1,	-1,	29,	-1,	-1,	-1,	27,	-1,	-1,	-1,	-1,	-1,	25,	-1,	24,	33,	-1,	-1,	-1,	14,	12,	-1,	-1,	2,	32,	-1,	15|
-1,	-1,	-1,	-1,	-1,	-1,	-1,	-1,	21,	17,	25,	-1,	-1,	-1,	-1,	5,	31,	-1,	-1,	-1,	2,	-1,	-1,	-1,	30,	-1,	-1,	10,	-1,	-1,	-1,	-1,	-1,	-1,	33,	-1|
-1,	-1,	-1,	-1,	-1,	-1,	-1,	-1,	-1,	-1,	-1,	-1,	-1,	-1,	-1,	-1,	-1,	-1,	-1,	11,	-1,	30,	-1,	-1,	-1,	-1,	28,	22,	-1,	-1,	20,	-1,	10,	-1,	-1,	35|
18,	-1,	-1,	-1,	-1,	9,	-1,	28,	-1,	36,	-1,	-1,	-1,	-1,	33,	-1,	1,	20,	-1,	22,	27,	-1,	-1,	16,	-1,	-1,	-1,	-1,	-1,	-1,	-1,	-1,	-1,	30,	-1,	14|
-1,	-1,	20,	-1,	6,	-1,	-1,	11,	-1,	-1,	4,	-1,	-1,	16,	-1,	-1,	-1,	-1,	-1,	-1,	-1,	-1,	-1,	-1,	-1,	-1,	-1,	-1,	-1,	-1,	-1,	-1,	-1,	-1,	-1,	7|
1,	-1,	-1,	8,	-1,	7,	-1,	-1,	-1,	-1,	-1,	-1,	-1,	-1,	-1,	-1,	12,	17,	-1,	-1,	-1,	-1,	-1,	-1,	9,	34,	29,	27,	3,	-1,	-1,	-1,	-1,	13,	-1,	11|
-1,	-1,	-1,	-1,	3,	-1,	-1,	-1,	-1,	30,	-1,	-1,	-1,	-1,	-1,	29,	-1,	-1,	-1,	19,	24,	23,	-1,	-1,	-1,	-1,	8,	-1,	-1,	14,	-1,	-1,	-1,	-1,	-1,	-1|
15,	-1,	-1,	33,	-1,	-1,	-1,	10,	-1,	-1,	17,	22,	1,	-1,	-1,	-1,	25,	-1,	-1,	35,	4,	-1,	-1,	-1,	-1,	-1,	-1,	-1,	-1,	-1,	-1,	6,	-1,	-1,	-1,	-1|
17,	-1,	-1,	-1,	22,	-1,	-1,	-1,	14,	-1,	29,	-1,	-1,	-1,	-1,	24,	-1,	-1,	-1,	-1,	1,	-1,	-1,	33,	31,	12,	-1,	-1,	-1,	10,	-1,	-1,	-1,	-1,	-1,	27|
-1,	-1,	-1,	-1,	-1,	2,	35,	20,	-1,	-1,	26,	13,	5,	-1,	10,	22,	33,	-1,	-1,	31,	-1,	-1,	30,	-1,	-1,	15,	7,	-1,	-1,	-1,	14,	12,	-1,	-1,	21,	-1|
-1,	4,	-1,	23,	1,	-1,	-1,	-1,	-1,	-1,	-1,	30,	-1,	19,	-1,	-1,	-1,	-1,	13,	-1,	7,	-1,	8,	21,	-1,	-1,	12,	-1,	10,	-1,	25,	-1,	-1,	33,	-1,	36|
-1,	-1,	36,	9,	-1,	-1,	25,	-1,	-1,	-1,	5,	-1,	23,	-1,	-1,	-1,	-1,	-1,	3,	1,	-1,	6,	-1,	2,	14,	8,	-1,	-1,	15,	-1,	-1,	-1,	-1,	-1,	-1,	12|
21,	8,	-1,	-1,	31,	19,	-1,	-1,	-1,	-1,	-1,	27,	-1,	-1,	22,	33,	-1,	12,	-1,	25,	-1,	-1,	-1,	17,	-1,	-1,	-1,	-1,	-1,	-1,	5,	-1,	16,	26,	-1,	-1|
25,	-1,	7,	-1,	-1,	-1,	-1,	-1,	22,	29,	-1,	31,	-1,	18,	-1,	36,	-1,	-1,	-1,	-1,	26,	-1,	-1,	-1,	-1,	28,	-1,	-1,	-1,	34,	32,	8,	-1,	6,	11,	20|
-1,	-1,	-1,	-1,	-1,	-1,	-1,	-1,	-1,	-1,	-1,	-1,	-1,	-1,	-1,	8,	-1,	-1,	-1,	4,	-1,	-1,	5,	19,	-1,	-1,	-1,	-1,	-1,	-1,	-1,	-1,	-1,	-1,	-1,	-1|
-1,	-1,	-1,	29,	-1,	-1,	-1,	-1,	8,	-1,	-1,	-1,	-1,	-1,	-1,	-1,	10,	24,	-1,	-1,	36,	-1,	-1,	30,	13,	-1,	-1,	-1,	17,	5,	-1,	35,	3,	-1,	18,	-1|
4,	-1,	-1,	-1,	24,	-1,	-1,	-1,	-1,	-1,	-1,	-1,	25,	-1,	7,	-1,	-1,	-1,	10,	-1,	-1,	-1,	-1,	-1,	-1,	-1,	-1,	-1,	33,	-1,	11,	-1,	-1,	-1,	12,	17|
-1,	18,	-1,	-1,	-1,	-1,	-1,	-1,	-1,	-1,	3,	-1,	-1,	-1,	-1,	-1,	-1,	-1,	-1,	-1,	-1,	-1,	-1,	-1,	-1,	-1,	-1,	-1,	-1,	-1,	-1,	-1,	6,	-1,	-1,	21|
14,	-1,	-1,	1,	-1,	8,	31,	-1,	2,	-1,	-1,	-1,	28,	33,	27,	-1,	-1,	-1,	12,	-1,	-1,	-1,	-1,	-1,	-1,	-1,	3,	-1,	-1,	-1,	-1,	10,	-1,	-1,	-1,	-1|
-1,	-1,	-1,	-1,	-1,	-1,	-1,	-1,	-1,	-1,	-1,	-1,	22,	-1,	-1,	-1,	-1,	-1,	-1,	-1,	31,	1,	-1,	-1,	-1,	-1,	-1,	-1,	-1,	-1,	-1,	-1,	-1,	-1,	-1,	33|
11,	32,	6,	-1,	-1,	-1,	-1,	13,	-1,	19,	-1,	36,	24,	-1,	-1,	-1,	9,	-1,	-1,	21,	-1,	27,	-1,	-1,	4,	-1,	-1,	30,	35,	-1,	2,	-1,	-1,	-1,	-1,	-1|
-1,	-1,	-1,	-1,	2,	35,	-1,	-1,	-1,	-1,	30,	-1,	-1,	12,	-1,	-1,	-1,	-1,	-1,	23,	-1,	-1,	36,	-1,	-1,	-1,	10,	7,	-1,	16,	19,	3,	-1,	-1,	1,	32|
-1,	-1,	35,	-1,	33,	-1,	16,	-1,	-1,	-1,	-1,	-1,	10,	-1,	-1,	-1,	-1,	28,	-1,	7,	-1,	-1,	-1,	-1,	19,	9,	34,	-1,	-1,	-1,	-1,	32,	20,	29,	30,	25|
-1,	-1,	-1,	-1,	-1,	11,	23,	-1,	-1,	31,	-1,	6,	17,	-1,	-1,	-1,	-1,	-1,	-1,	18,	-1,	-1,	24,	5,	-1,	-1,	-1,	-1,	-1,	-1,	-1,	4,	-1,	-1,	-1,	3|
-1,	-1,	-1,	-1,	-1,	-1,	-1,	19,	-1,	7,	-1,	-1,	11,	8,	-1,	-1,	-1,	-1,	-1,	-1,	-1,	12,	-1,	-1,	-1,	-1,	-1,	-1,	-1,	-1,	-1,	23,	35,	-1,	34,	-1|
-1,	34,	-1,	4,	-1,	-1,	-1,	-1,	-1,	-1,	-1,	-1,	27,	30,	-1,	-1,	-1,	-1,	-1,	9,	-1,	-1,	-1,	-1,	7,	-1,	-1,	-1,	2,	22,	33,	-1,	-1,	-1,	15,	-1|
-1,	-1,	9,	-1,	27,	-1,	3,	29,	-1,	2,	35,	-1,	-1,	-1,	-1,	-1,	-1,	15,	11,	-1,	-1,	-1,	-1,	34,	-1,	17,	30,	-1,	13,	-1,	-1,	-1,	-1,	-1,	14,	24|
-1,	25,	16,	-1,	-1,	-1,	17,	27,	-1,	-1,	-1,	-1,	12,	-1,	24,	9,	-1,	-1,	1,	30,	-1,	-1,	3,	-1,	-1,	-1,	20,	23,	-1,	4,	-1,	19,	-1,	2,	28,	-1|
20,	3,	-1,	-1,	-1,	-1,	12,	-1,	-1,	27,	-1,	-1,	-1,	11,	-1,	-1,	6,	-1,	-1,	-1,	-1,	-1,	-1,	-1,	-1,	25,	-1,	-1,	34,	-1,	-1,	-1,	33,	28,	16,	18|
27,	28,	-1,	32,	-1,	1,	34,	-1,	-1,	-1,	-1,	9,	-1,	-1,	-1,	-1,	24,	-1,	-1,	6,	-1,	-1,	-1,	-1,	-1,	22,	14,	17,	-1,	-1,	36,	-1,	-1,	-1,	2,	23|
-1,	-1,	18,	-1,	36,	-1,	-1,	-1,	24,	-1,	-1,	-1,	20,	-1,	-1,	-1,	-1,	-1,	33,	-1,	-1,	29,	-1,	-1,	-1,	6,	19,	-1,	-1,	-1,	-1,	27,	4,	3,	-1,	13|
-1,	2,	-1,	6,	-1,	16,	-1,	-1,	-1,	-1,	-1,	25,	-1,	-1,	-1,	-1,	-1,	-1,	-1,	-1,	-1,	-1,	-1,	-1,	-1,	3,	-1,	13,	-1,	-1,	-1,	22,	14,	11,	7,	-1|
22,	-1,	8,	13,	-1,	-1,	-1,	-1,	-1,	15,	-1,	-1,	4,	-1,	-1,	-1,	-1,	-1,	-1,	-1,	-1,	-1,	32,	-1,	27,	-1,	-1,	-1,	-1,	11,	31,	34,	-1,	-1,	-1,	-1|
-1,	-1,	-1,	-1,	-1,	21,	-1,	-1,	-1,	-1,	-1,	-1,	-1,	15,	-1,	1,	-1,	-1,	22,	-1,	-1,	-1,	-1,	-1,	-1,	-1,	-1,	-1,	-1,	-1,	-1,	-1,	9,	5,	32,	6|];
